
Gurobi 11.0.3 (linux64) logging started Mon Aug 25 16:24:37 2025

Set parameter LogFile to value "/home/yihong/Coding/OR_SUC/SUC_epstheta_results_bigM100000_thread4/case24_ieee_rts_theta0.001_epsilon0.2_gurobi_seed240000_num_gen100_N_WDR50_load_scaling_factor1_proposed_eps_T4quadra_cost_bc1.03.txt"
Set parameter TimeLimit to value 3600
Gurobi Optimizer version 11.0.3 build v11.0.3rc0 (linux64 - "Ubuntu 20.04.6 LTS")

CPU model: AMD EPYC 7532 32-Core Processor, instruction set [SSE2|AVX|AVX2]
Thread count: 64 physical cores, 128 logical processors, using up to 4 threads

Academic license 2399124 - for non-commercial use only - registered to yi___@ed.ac.uk
Optimize a model with 10688 rows, 5011 columns and 386358 nonzeros
Model fingerprint: 0x7f30fd6d
Model has 400 quadratic constraints
Variable types: 4611 continuous, 400 integer (400 binary)
Coefficient statistics:
  Matrix range     [3e-04, 2e+03]
  QMatrix range    [2e-03, 8e-03]
  QLMatrix range   [4e-01, 6e+01]
  Objective range  [1e+00, 1e+00]
  Bounds range     [1e+00, 1e+00]
  RHS range        [5e-02, 9e+03]
Presolve removed 8999 rows and 2249 columns
Presolve time: 0.09s
Presolved: 1689 rows, 2762 columns, 12006 nonzeros
Presolved model has 400 quadratic constraint(s)
Variable types: 2362 continuous, 400 integer (400 binary)

Root relaxation: objective 3.575352e+03, 1212 iterations, 0.02 seconds (0.02 work units)

    Nodes    |    Current Node    |     Objective Bounds      |     Work
 Expl Unexpl |  Obj  Depth IntInf | Incumbent    BestBd   Gap | It/Node Time

     0     0 3575.35246    0    4          - 3575.35246      -     -    0s
H    0     0                    143173.09972 3575.35246  97.5%     -    0s
     0     0 66088.1257    0    4 143173.100 66088.1257  53.8%     -    0s
H    0     0                    128858.25594 66088.5468  48.7%     -    0s
     0     0 126975.464    0    4 128858.256 126975.464  1.46%     -    0s
     0     0 126979.124    0    4 128858.256 126979.124  1.46%     -    0s
     0     0 126982.866    0    4 128858.256 126982.866  1.46%     -    0s
     0     0 126982.927    0    4 128858.256 126982.927  1.46%     -    0s
     0     2 126982.927    0    4 128858.256 126982.927  1.46%     -    0s
H   28    28                    126998.04439 126994.993  0.00%  10.6    0s
*   28    28               8    126998.04439 126994.993  0.00%  10.6    0s

Cutting planes:
  Implied bound: 4

Explored 31 nodes (3031 simplex iterations) in 0.64 seconds (0.52 work units)
Thread count was 4 (of 128 available processors)

Solution count 3: 126998 128858 143173 

Optimal solution found (tolerance 1.00e-03)
Warning: max constraint violation (8.0226e-09) exceeds tolerance
Best objective 1.269980443903e+05, best bound 1.269949927815e+05, gap 0.0024%

Gurobi 11.0.3 (linux64) logging started Mon Aug 25 16:24:38 2025

Set parameter LogFile to value "/home/yihong/Coding/OR_SUC/SUC_epstheta_results_bigM100000_thread4/case24_ieee_rts_theta0.001_epsilon0.2_gurobi_seed240000_num_gen100_N_WDR50_load_scaling_factor1_proposed_eps_T4quadra_cost_bc1.03.txt"
Set parameter TimeLimit to value 3600
Gurobi Optimizer version 11.0.3 build v11.0.3rc0 (linux64 - "Ubuntu 20.04.6 LTS")

CPU model: AMD EPYC 7532 32-Core Processor, instruction set [SSE2|AVX|AVX2]
Thread count: 64 physical cores, 128 logical processors, using up to 4 threads

Academic license 2399124 - for non-commercial use only - registered to yi___@ed.ac.uk
Optimize a model with 10688 rows, 5012 columns and 387547 nonzeros
Model fingerprint: 0xe933386f
Model has 401 quadratic constraints
Variable types: 4612 continuous, 400 integer (400 binary)
Coefficient statistics:
  Matrix range     [3e-04, 2e+03]
  QMatrix range    [2e-03, 5e+01]
  QLMatrix range   [4e-01, 6e+01]
  Objective range  [1e+00, 1e+00]
  Bounds range     [2e-01, 1e+00]
  RHS range        [1e+00, 1e+05]
  QRHS range       [5e-02, 5e-02]
Presolve removed 8378 rows and 1948 columns
Presolve time: 0.09s
Presolved: 2712 rows, 3464 columns, 16478 nonzeros
Presolved model has 400 quadratic constraint(s)
Presolved model has 1 bilinear constraint(s)

Solving non-convex MIQCP

Variable types: 3060 continuous, 404 integer (404 binary)

Root relaxation: objective 1.490181e-05, 2727 iterations, 0.07 seconds (0.09 work units)

    Nodes    |    Current Node    |     Objective Bounds      |     Work
 Expl Unexpl |  Obj  Depth IntInf | Incumbent    BestBd   Gap | It/Node Time

     0     0    0.00001    0    5          -    0.00001      -     -    0s
     0     0    0.00001    0    5          -    0.00001      -     -    0s
     0     0    0.00001    0    5          -    0.00001      -     -    0s
H    0     0                       0.0100138    0.00001   100%     -    0s
     0     0    0.00001    0    5    0.01001    0.00001   100%     -    0s
H    0     0                       0.0013773    0.00001  98.9%     -    0s
H    0     0                       0.0012503    0.00001  98.8%     -    0s
H    0     0                       0.0012388    0.00001  98.8%     -    0s
H    0     0                       0.0005789    0.00001  97.4%     -    0s
     0     2    0.00002    0    5    0.00058    0.00002  97.3%     -    0s
H   46    40                       0.0002085    0.00009  56.8%  90.0    1s
*   46    40              11       0.0002085    0.00009  56.8%  90.5    1s
H   55    45                       0.0001969    0.00009  54.2%  79.7    1s
*   55    45              13       0.0001969    0.00009  54.2%  90.5    1s
H  113    12                       0.0001969    0.00009  54.2%  56.2    2s
*  440     8              15       0.0001967    0.00020  0.55%  17.7    3s
*  482     5              14       0.0001961    0.00020  0.25%  16.4    3s
*  500     3              14       0.0001961    0.00020  0.25%  15.9    3s
*  504     1              13       0.0001961    0.00020  0.25%  15.8    3s
*  508     0              11       0.0001956    0.00020  0.00%  15.7    3s

Cutting planes:
  Implied bound: 20
  Flow cover: 14

Explored 512 nodes (11011 simplex iterations) in 3.26 seconds (3.48 work units)
Thread count was 4 (of 128 available processors)

Solution count 10: 0.000195572 0.00019606 0.000196063 ... 0.00123879

Optimal solution found (tolerance 1.00e-03)
Best objective 1.955723547393e-04, best bound 1.955723547393e-04, gap 0.0000%
